1 -1 2 0
1 1 3 0
1 -1 -4 0
1 1 5 0
1 -6 2 0
1 -6 3 0
1 7 -3 0
1 -7 -8 0
1 7 -9 0
1 7 -10 0
1 7 11 0
1 -7 5 0
1 12 -13 0
1 12 -14 0
1 12 -3 0
1 12 -8 0
1 -12 9 0
1 12 7 0
1 12 -11 0
1 -3 15 0
1 3 -12 0
1 -3 -16 0
1 -3 17 0
1 -3 18 0
1 3 -5 0
1 -5 19 0
1 5 20 0
1 -5 -12 0
1 5 16 0
1 5 1 0
1 2 -19 0
1 -2 12 0
1 -2 -21 0
1 2 -16 0
1 -2 22 0
1 2 7 0
1 11 -23 0
1 -11 12 0
1 -11 2 0
1 -11 -22 0
1 11 -7 0
1 -11 1 0
1 18 -13 0
1 -18 15 0
1 18 3 0
1 -15 -23 0
1 -15 -3 0
1 17 -24 0
1 -17 8 0
1 -20 13 0
1 20 3 0
1 20 8 0
1 -20 9 0
1 20 25 0
1 -9 -20 0
1 -9 12 0
1 9 26 0
1 9 -27 0
1 9 18 0
1 -13 28 0
1 -13 20 0
1 13 29 0
1 -13 26 0
1 -13 17 0
1 13 -7 0
1 -13 -30 0
1 8 31 0
1 8 32 0
1 -8 20 0
1 8 -12 0
1 -8 17 0
1 -31 19 0
1 -31 15 0
1 -31 -12 0
1 27 -25 0
1 -28 19 0
1 -28 24 0
1 28 9 0
1 28 33 0
1 -26 24 0
1 26 34 0
1 26 -25 0
1 35 32 0
1 35 -13 0
1 25 -36 0
1 -34 20 0
1 34 -26 0
1 -33 -24 0
1 -33 37 0
1 -33 38 0
1 -33 29 0
1 33 -26 0
1 -33 -27 0
1 -33 39 0
1 33 30 0
1 24 -40 0
1 -24 38 0
1 24 -27 0
1 24 -41 0
1 4 42 0
1 -4 -1 0
1 42 -43 0
1 42 -6 0
1 -42 44 0
1 -42 45 0
1 10 -46 0
1 10 -47 0
1 -10 -14 0
1 10 7 0
1 -14 -48 0
1 14 -12 0
1 14 -49 0
1 -14 -44 0
1 -14 45 0
1 14 -10 0
1 -43 50 0
1 -43 45 0
1 43 -22 0
1 -45 42 0
1 -45 51 0
1 45 -52 0
1 -45 22 0
1 -45 -10 0
1 -45 4 0
1 -46 53 0
1 -46 14 0
1 46 42 0
1 -46 -44 0
1 -46 -54 0
1 -46 -4 0
1 -44 -53 0
1 44 14 0
1 -44 42 0
1 44 -54 0
1 -44 -55 0
1 44 -4 0
1 -22 -43 0
1 22 45 0
1 -22 56 0
1 22 18 0
1 23 43 0
1 -23 48 0
1 -23 45 0
1 -23 -57 0
1 23 -56 0
1 -23 11 0
1 52 -43 0
1 52 -58 0
1 -52 -2 0
1 -52 -45 0
1 -52 -56 0
1 -52 -55 0
1 52 -59 0
1 -50 -48 0
1 50 45 0
1 -50 -11 0
1 -48 -60 0
1 48 56 0
1 -48 -14 0
1 -48 61 0
1 -48 16 0
1 -48 -52 0
1 -48 22 0
1 -48 10 0
1 56 -23 0
1 -56 -48 0
1 -56 14 0
1 56 -61 0
1 56 62 0
1 56 52 0
1 -56 -22 0
1 56 10 0
1 -47 -60 0
1 47 -50 0
1 -47 -63 0
1 47 -23 0
1 47 -52 0
1 47 -10 0
1 57 -60 0
1 -57 53 0
1 -57 47 0
1 57 23 0
1 57 -64 0
1 16 -58 0
1 -16 -3 0
1 16 54 0
1 16 -59 0
1 -19 31 0
1 -19 -53 0
1 19 58 0
1 -19 2 0
1 19 3 0
1 19 -65 0
1 -19 -11 0
1 -62 31 0
1 -62 58 0
1 62 66 0
1 62 26 0
1 -62 -67 0
1 32 -68 0
1 32 69 0
1 32 -62 0
1 -32 -56 0
1 -58 32 0
1 58 -50 0
1 58 -70 0
1 58 -62 0
1 -58 -16 0
1 58 52 0
1 -58 41 0
1 -65 32 0
1 -65 -29 0
1 65 -71 0
1 -65 62 0
1 65 16 0
1 65 -52 0
1 -72 50 0
1 -72 62 0
1 72 -52 0
1 72 73 0
1 72 74 0
1 -59 -60 0
1 -59 19 0
1 -59 50 0
1 -59 -72 0
1 59 -61 0
1 -59 -62 0
1 -59 16 0
1 -59 52 0
1 59 75 0
1 29 -68 0
1 -29 -24 0
1 29 58 0
1 -29 -61 0
1 29 66 0
1 -29 9 0
1 29 33 0
1 30 -60 0
1 30 -31 0
1 30 -24 0
1 -30 -58 0
1 -30 -21 0
1 30 29 0
1 -30 66 0
1 -30 33 0
1 -30 -65 0
1 -38 68 0
1 38 -76 0
1 38 -24 0
1 -38 -66 0
1 -38 77 0
1 -38 -78 0
1 -38 -33 0
1 -38 65 0
1 -38 -79 0
1 -41 -58 0
1 -41 -66 0
1 41 -33 0
1 41 -79 0
1 -41 74 0
1 -66 80 0
1 -66 38 0
1 -66 -29 0
1 66 -81 0
1 -66 39 0
1 66 41 0
1 -68 82 0
1 68 -80 0
1 -68 -62 0
1 -68 -83 0
1 68 -39 0
1 21 29 0
1 -21 -79 0
1 21 30 0
1 79 82 0
1 -79 81 0
1 -79 84 0
1 -79 -73 0
1 -79 -85 0
1 -79 30 0
1 -37 68 0
1 37 86 0
1 37 -77 0
1 -37 25 0
1 -39 -87 0
1 -39 -37 0
1 39 77 0
1 39 -78 0
1 -39 25 0
1 39 -73 0
1 80 -83 0
1 80 88 0
1 -80 66 0
1 -80 89 0
1 -80 -36 0
1 83 -87 0
1 -83 -40 0
1 83 -90 0
1 -83 -77 0
1 -83 78 0
1 83 -89 0
1 -83 -36 0
1 78 91 0
1 -78 -37 0
1 -78 -38 0
1 78 83 0
1 87 13 0
1 87 -92 0
1 -87 -93 0
1 87 -80 0
1 87 78 0
1 87 94 0
1 -87 83 0
1 87 39 0
1 87 -41 0
1 77 95 0
1 -77 -96 0
1 -77 82 0
1 -77 -80 0
1 77 -37 0
1 77 8 0
1 77 -97 0
1 -77 81 0
1 77 41 0
1 -76 38 0
1 76 -97 0
1 -76 -98 0
1 -76 -39 0
1 -76 -41 0
1 91 -90 0
1 91 89 0
1 -91 -78 0
1 -91 36 0
1 94 -40 0
1 94 78 0
1 -94 89 0
1 99 93 0
1 99 36 0
1 -36 100 0
1 -36 91 0
1 36 -80 0
1 -36 -83 0
1 -90 -101 0
1 -90 102 0
1 90 99 0
1 -90 -83 0
1 -89 103 0
1 89 -95 0
1 89 93 0
1 89 -80 0
1 89 102 0
1 -40 -100 0
1 40 103 0
1 40 95 0
1 -40 93 0
1 -40 -104 0
1 -40 91 0
1 40 -102 0
1 -40 89 0
1 -105 -106 0
1 105 -107 0
1 -105 -108 0
1 -109 107 0
1 -109 -105 0
1 -110 -106 0
1 110 49 0
1 -110 111 0
1 110 10 0
1 49 -112 0
1 -49 -113 0
1 49 110 0
1 114 -115 0
1 114 116 0
1 114 -49 0
1 -114 117 0
1 114 -55 0
1 -114 105 0
1 112 117 0
1 112 -118 0
1 -112 -105 0
1 107 115 0
1 -107 49 0
1 107 117 0
1 107 -119 0
1 107 105 0
1 -106 115 0
1 106 120 0
1 -106 121 0
1 -106 -49 0
1 106 109 0
1 106 -117 0
1 -106 122 0
1 106 -105 0
1 118 -123 0
1 124 123 0
1 124 -111 0
1 -124 -44 0
1 -55 125 0
1 55 46 0
1 55 116 0
1 -55 -126 0
1 55 52 0
1 -55 -114 0
1 -55 -127 0
1 116 -114 0
1 -116 -128 0
1 116 -123 0
1 -116 -111 0
1 116 -113 0
1 -113 -53 0
1 -113 -49 0
1 113 67 0
1 113 -54 0
1 113 -55 0
1 -113 110 0
1 -123 -53 0
1 -123 -129 0
1 -123 -118 0
1 123 110 0
1 -111 -115 0
1 -111 124 0
1 111 -130 0
1 -111 117 0
1 -128 -131 0
1 -128 -115 0
1 -128 -130 0
1 128 -118 0
1 54 -123 0
1 54 -132 0
1 54 16 0
1 -54 127 0
1 -53 -125 0
1 53 46 0
1 53 19 0
1 53 -47 0
1 53 -132 0
1 -53 126 0
1 -53 45 0
1 53 54 0
1 53 -127 0
1 -67 69 0
1 -67 -47 0
1 67 123 0
1 -67 126 0
1 67 57 0
1 67 -133 0
1 67 113 0
1 -67 127 0
1 69 131 0
1 -69 -47 0
1 69 -132 0
1 69 126 0
1 -69 67 0
1 69 57 0
1 69 -127 0
1 -125 60 0
1 125 -134 0
1 125 -116 0
1 -125 135 0
1 -125 -67 0
1 -126 60 0
1 126 -61 0
1 126 -136 0
1 127 137 0
1 127 138 0
1 127 130 0
1 127 54 0
1 127 55 0
1 127 -136 0
1 -132 -137 0
1 132 116 0
1 -132 139 0
1 -132 -140 0
1 132 130 0
1 -132 54 0
1 -132 -136 0
1 -132 -127 0
1 -61 -60 0
1 -61 -72 0
1 -61 -29 0
1 61 130 0
1 -61 57 0
1 -60 137 0
1 -60 72 0
1 -60 -61 0
1 -60 -141 0
1 -60 57 0
1 135 142 0
1 -135 126 0
1 -135 140 0
1 -135 51 0
1 -74 -63 0
1 74 126 0
1 74 141 0
1 -74 -51 0
1 -74 -143 0
1 74 -59 0
1 74 -41 0
1 144 -60 0
1 -144 69 0
1 144 -145 0
1 -144 -88 0
1 -144 -86 0
1 144 135 0
1 144 61 0
1 -144 51 0
1 -144 146 0
1 144 84 0
1 -144 73 0
1 144 74 0
1 -51 147 0
1 51 86 0
1 51 -61 0
1 -51 67 0
1 51 -148 0
1 51 -146 0
1 142 60 0
1 -142 -46 0
1 -142 -149 0
1 142 150 0
1 -142 -135 0
1 142 -141 0
1 142 -136 0
1 -141 142 0
1 -141 147 0
1 141 -150 0
1 -141 44 0
1 141 67 0
1 141 151 0
1 141 -136 0
1 86 144 0
1 -86 -37 0
1 -86 58 0
1 86 -64 0
1 86 -143 0
1 86 73 0
1 -86 79 0
1 73 -72 0
1 73 -58 0
1 -73 -86 0
1 73 -21 0
1 73 51 0
1 73 -64 0
1 -73 -79 0
1 88 -152 0
1 -88 -153 0
1 88 -150 0
1 88 70 0
1 -88 79 0
1 -84 144 0
1 -84 63 0
1 -84 153 0
1 -84 -70 0
1 -84 64 0
1 -84 -75 0
1 152 -143 0
1 -152 -48 0
1 -152 82 0
1 -152 -154 0
1 -152 88 0
1 152 155 0
1 -152 -81 0
1 -152 -84 0
1 -143 -156 0
1 -143 -96 0
1 143 -56 0
1 -143 -84 0
1 143 -74 0
1 63 -157 0
1 63 -86 0
1 -63 135 0
1 -64 158 0
1 -64 157 0
1 -64 -88 0
1 -64 -155 0
1 -64 57 0
1 -64 146 0
1 -64 -84 0
1 82 -76 0
1 82 143 0
1 82 -147 0
1 82 77 0
1 -82 75 0
1 81 -21 0
1 -81 77 0
1 -81 75 0
1 -81 -71 0
1 96 76 0
1 -96 -93 0
1 -96 152 0
1 -96 -77 0
1 96 -98 0
1 98 159 0
1 -98 -76 0
1 -98 152 0
1 98 70 0
1 98 -160 0
1 98 77 0
1 98 -85 0
1 -70 96 0
1 -70 82 0
1 70 161 0
1 71 -95 0
1 -71 -96 0
1 71 82 0
1 71 -88 0
1 71 70 0
1 -71 -81 0
1 71 162 0
1 153 75 0
1 153 -163 0
1 153 -98 0
1 -153 -81 0
1 -153 84 0
1 -75 -164 0
1 -75 -96 0
1 -75 82 0
1 75 161 0
1 75 163 0
1 -75 98 0
1 -75 -59 0
1 75 -84 0
1 -95 87 0
1 95 40 0
1 -95 -78 0
1 95 71 0
1 -95 -85 0
1 -97 95 0
1 97 40 0
1 -97 70 0
1 -97 160 0
1 97 77 0
1 97 155 0
1 -97 71 0
1 -97 85 0
1 103 159 0
1 -103 -165 0
1 -103 92 0
1 -103 -40 0
1 -103 166 0
1 103 -71 0
1 -103 85 0
1 -167 103 0
1 167 -40 0
1 167 168 0
1 -167 -163 0
1 167 89 0
1 -160 -100 0
1 160 159 0
1 -160 -103 0
1 160 95 0
1 160 169 0
1 160 -170 0
1 -160 171 0
1 -160 -172 0
1 -160 173 0
1 -159 100 0
1 159 68 0
1 -159 96 0
1 159 -172 0
1 168 174 0
1 168 -95 0
1 168 96 0
1 168 175 0
1 168 21 0
1 168 -167 0
1 168 176 0
1 168 -177 0
1 -85 178 0
1 85 -103 0
1 85 -95 0
1 -85 169 0
1 -85 -168 0
1 -85 -97 0
1 -85 98 0
1 -85 172 0
1 85 177 0
1 -100 159 0
1 -100 40 0
1 100 -166 0
1 100 179 0
1 100 36 0
1 102 159 0
1 -102 40 0
1 102 161 0
1 -102 160 0
1 -102 -166 0
1 -173 -159 0
1 -173 -104 0
1 173 -160 0
1 -173 -166 0
1 -173 180 0
1 -170 92 0
1 -170 101 0
1 -170 -175 0
1 -170 -181 0
1 -170 -173 0
1 179 92 0
1 -179 182 0
1 -179 183 0
1 92 103 0
1 -92 -184 0
1 92 182 0
1 92 183 0
1 92 -185 0
1 92 -179 0
1 -92 -186 0
1 92 -173 0
1 -166 -165 0
1 166 182 0
1 -166 77 0
1 -165 103 0
1 165 76 0
1 -165 -187 0
1 -165 169 0
1 -165 -170 0
1 165 102 0
1 -165 167 0
1 -165 -172 0
1 165 173 0
1 188 -185 0
1 188 -179 0
1 -188 -181 0
1 -188 -180 0
1 185 92 0
1 186 104 0
1 186 -183 0
1 186 179 0
1 -183 180 0
1 183 181 0
1 183 -186 0
1 180 189 0
1 180 -101 0
1 180 -170 0
1 -180 -186 0
1 180 -190 0
1 101 -180 0
1 101 -189 0
1 -101 183 0
1 101 -191 0
1 101 173 0
1 -181 -104 0
1 -181 188 0
1 104 189 0
1 104 -182 0
1 104 183 0
1 -104 -170 0
1 -104 -192 0
1 108 -193 0
1 108 -194 0
1 108 -195 0
1 -108 196 0
1 108 105 0
1 196 195 0
1 196 108 0
1 -197 -195 0
1 197 -198 0
1 -197 -199 0
1 -197 200 0
1 201 -202 0
1 -201 -195 0
1 -201 203 0
1 -201 204 0
1 201 199 0
1 201 197 0
1 -201 -205 0
1 -195 -206 0
1 -195 207 0
1 195 121 0
1 195 208 0
1 -195 196 0
1 195 119 0
1 195 -197 0
1 -199 -207 0
1 -199 119 0
1 -199 122 0
1 -199 -209 0
1 -194 -210 0
1 -194 -201 0
1 194 196 0
1 194 -211 0
1 194 197 0
1 198 212 0
1 198 210 0
1 198 -201 0
1 -198 213 0
1 122 -204 0
1 -121 106 0
1 -121 -195 0
1 121 214 0
1 -121 107 0
1 -119 -106 0
1 119 -207 0
1 119 -215 0
1 119 -55 0
1 -119 -202 0
1 207 214 0
1 207 204 0
1 -207 215 0
1 -204 131 0
1 -204 -216 0
1 -204 -119 0
1 -204 -205 0
1 -205 131 0
1 205 119 0
1 214 -217 0
1 214 -206 0
1 -214 207 0
1 214 201 0
1 -214 -216 0
1 214 218 0
1 -214 -122 0
1 -214 197 0
1 -202 -217 0
1 -202 214 0
1 202 -218 0
1 -202 219 0
1 -117 220 0
1 117 -114 0
1 -117 -112 0
1 117 106 0
1 -117 215 0
1 117 -221 0
1 117 107 0
1 -117 111 0
1 -117 -205 0
1 115 222 0
1 -115 -206 0
1 -115 112 0
1 -115 -128 0
1 115 215 0
1 -115 -221 0
1 -115 -107 0
1 115 205 0
1 133 -220 0
1 -133 -131 0
1 133 -204 0
1 133 67 0
1 -131 -120 0
1 131 223 0
1 131 -215 0
1 -131 -221 0
1 131 111 0
1 -221 137 0
1 221 -131 0
1 -221 207 0
1 -221 -224 0
1 221 130 0
1 221 225 0
1 -220 131 0
1 -220 226 0
1 220 115 0
1 -220 207 0
1 220 224 0
1 220 -133 0
1 220 -119 0
1 220 -227 0
1 220 -225 0
1 215 222 0
1 -215 -131 0
1 -215 115 0
1 215 207 0
1 -215 -228 0
1 -215 -216 0
1 215 133 0
1 215 -119 0
1 222 -217 0
1 222 115 0
1 222 224 0
1 -222 -215 0
1 222 -216 0
1 -130 120 0
1 130 -61 0
1 -130 221 0
1 130 113 0
1 -137 -60 0
1 137 217 0
1 137 -220 0
1 -137 -223 0
1 137 128 0
1 137 -123 0
1 137 -113 0
1 -140 223 0
1 140 129 0
1 -140 -132 0
1 140 -229 0
1 140 -230 0
1 -140 127 0
1 140 -225 0
1 225 -129 0
1 225 132 0
1 225 -221 0
1 -225 -229 0
1 225 -230 0
1 -229 137 0
1 -229 -223 0
1 229 231 0
1 229 -140 0
1 -229 114 0
1 -229 232 0
1 -229 -151 0
1 223 -131 0
1 223 -233 0
1 223 234 0
1 223 -150 0
1 223 140 0
1 -223 130 0
1 223 -232 0
1 -235 120 0
1 235 140 0
1 -235 -133 0
1 235 -236 0
1 235 227 0
1 120 131 0
1 120 130 0
1 -139 223 0
1 139 237 0
1 -139 -129 0
1 -139 132 0
1 139 224 0
1 139 -127 0
1 136 -142 0
1 -136 223 0
1 -136 129 0
1 136 -132 0
1 136 126 0
1 136 -229 0
1 136 -230 0
1 -136 238 0
1 -150 -142 0
1 150 223 0
1 150 -237 0
1 -150 -88 0
1 -150 239 0
1 -150 -240 0
1 -150 141 0
1 150 -230 0
1 -150 -229 0
1 151 -142 0
1 -151 -150 0
1 151 229 0
1 -151 236 0
1 -238 -150 0
1 -238 129 0
1 -238 -139 0
1 -238 140 0
1 -238 -241 0
1 -238 -146 0
1 238 136 0
1 -238 -242 0
1 129 243 0
1 -129 157 0
1 129 -123 0
1 -129 -136 0
1 230 -237 0
1 -230 -244 0
1 -230 232 0
1 230 245 0
1 237 243 0
1 -237 -246 0
1 237 -128 0
1 237 234 0
1 237 -230 0
1 237 244 0
1 -237 -225 0
1 -147 142 0
1 -147 82 0
1 -147 -234 0
1 -147 240 0
1 -147 138 0
1 146 134 0
1 -146 -142 0
1 -146 63 0
1 146 -51 0
1 -146 64 0
1 -146 232 0
1 -146 -138 0
1 -157 145 0
1 -157 -63 0
1 157 246 0
1 157 240 0
1 -157 64 0
1 -247 -134 0
1 247 -145 0
1 -247 -63 0
1 247 248 0
1 -247 -249 0
1 -247 -64 0
1 247 98 0
1 -247 244 0
1 -134 125 0
1 134 -248 0
1 134 -250 0
1 134 163 0
1 134 -155 0
1 134 -247 0
1 134 -146 0
1 -248 -157 0
1 248 147 0
1 248 -150 0
1 248 -250 0
1 248 163 0
1 -248 251 0
1 248 155 0
1 248 247 0
1 -248 -146 0
1 138 -252 0
1 138 -253 0
1 138 -254 0
1 -138 -157 0
1 -138 -255 0
1 -240 254 0
1 240 147 0
1 -240 132 0
1 -240 241 0
1 240 -247 0
1 156 243 0
1 -156 -63 0
1 156 -152 0
1 -156 155 0
1 156 -75 0
1 155 -134 0
1 155 149 0
1 -155 156 0
1 -155 153 0
1 -155 241 0
1 155 75 0
1 164 -103 0
1 164 256 0
1 164 75 0
1 163 134 0
1 163 -164 0
1 163 149 0
1 -163 145 0
1 163 256 0
1 163 153 0
1 -163 248 0
1 -163 148 0
1 163 158 0
1 163 -257 0
1 145 -174 0
1 -145 -258 0
1 145 175 0
1 148 164 0
1 148 -145 0
1 148 157 0
1 148 -163 0
1 -148 155 0
1 148 -259 0
1 148 -247 0
1 -149 253 0
1 -149 164 0
1 149 -260 0
1 149 157 0
1 -149 261 0
1 -149 -249 0
1 -149 -155 0
1 -249 -156 0
1 -249 -261 0
1 249 -262 0
1 249 250 0
1 -249 -263 0
1 174 -154 0
1 174 148 0
1 -174 71 0
1 -161 -174 0
1 -161 145 0
1 161 154 0
1 -161 70 0
1 161 -71 0
1 -177 264 0
1 -177 145 0
1 177 -256 0
1 -177 265 0
1 -177 266 0
1 -177 -162 0
1 177 -173 0
1 177 85 0
1 175 154 0
1 -175 -170 0
1 -175 168 0
1 -175 148 0
1 175 -158 0
1 -175 -257 0
1 175 -85 0
1 154 -174 0
1 -154 267 0
1 154 175 0
1 154 -268 0
1 154 -269 0
1 -154 172 0
1 154 177 0
1 257 -164 0
1 -257 154 0
1 257 -161 0
1 -257 163 0
1 -256 164 0
1 256 267 0
1 256 -270 0
1 -256 -271 0
1 256 161 0
1 256 -268 0
1 158 174 0
1 -158 -267 0
1 158 271 0
1 158 261 0
1 -158 175 0
1 158 -163 0
1 -158 64 0
1 158 268 0
1 158 272 0
1 158 -177 0
1 -172 169 0
1 -172 -168 0
1 -172 -160 0
1 172 -85 0
1 169 -165 0
1 -169 -185 0
1 169 265 0
1 169 261 0
1 169 273 0
1 -169 -160 0
1 -169 -162 0
1 169 -85 0
1 269 178 0
1 269 154 0
1 -269 -176 0
1 269 171 0
1 187 154 0
1 -187 -176 0
1 187 -171 0
1 187 -257 0
1 -187 269 0
1 -273 -274 0
1 273 182 0
1 273 70 0
1 273 -175 0
1 273 162 0
1 273 269 0
1 -273 -177 0
1 162 275 0
1 162 -274 0
1 162 182 0
1 -162 273 0
1 162 -269 0
1 162 71 0
1 -265 -276 0
1 -265 277 0
1 265 -268 0
1 265 172 0
1 -265 177 0
1 -266 -275 0
1 266 -187 0
1 -266 -175 0
1 -266 -278 0
1 -266 269 0
1 266 -172 0
1 -192 279 0
1 -192 182 0
1 -192 273 0
1 -192 179 0
1 192 181 0
1 -192 268 0
1 182 -165 0
1 -182 267 0
1 -182 192 0
1 -280 178 0
1 280 -281 0
1 -280 184 0
1 280 278 0
1 -280 -171 0
1 -280 -282 0
1 -280 -181 0
1 280 162 0
1 274 -178 0
1 274 279 0
1 -274 -281 0
1 -274 -184 0
1 -274 171 0
1 274 -282 0
1 171 -283 0
1 -171 -284 0
1 171 -274 0
1 -171 -182 0
1 -171 -280 0
1 279 -283 0
1 279 189 0
1 -279 -187 0
1 -279 285 0
1 -279 286 0
1 -279 -171 0
1 279 -269 0
1 -176 -182 0
1 176 285 0
1 -176 192 0
1 178 -287 0
1 178 -288 0
1 -178 -274 0
1 -178 -280 0
1 -178 -85 0
1 289 -189 0
1 -289 -281 0
1 289 184 0
1 -289 171 0
1 289 -181 0
1 189 -281 0
1 -189 -101 0
1 -189 -171 0
1 -189 -290 0
1 -189 282 0
1 286 284 0
1 -286 184 0
1 286 -291 0
1 286 -290 0
1 284 -279 0
1 284 281 0
1 284 286 0
1 284 -290 0
1 284 292 0
1 282 -189 0
1 282 -293 0
1 -282 294 0
1 282 -295 0
1 282 289 0
1 -282 280 0
1 -282 296 0
1 -184 -284 0
1 184 274 0
1 -184 -92 0
1 184 297 0
1 184 294 0
1 184 298 0
1 184 -296 0
1 -290 283 0
1 -290 -189 0
1 -290 -281 0
1 290 -293 0
1 -290 299 0
1 290 -286 0
1 290 289 0
1 -290 280 0
1 -290 -300 0
1 290 -298 0
1 -290 301 0
1 -281 -283 0
1 281 -165 0
1 -281 -274 0
1 281 299 0
1 -281 286 0
1 -281 290 0
1 -281 -298 0
1 -295 -302 0
1 295 -285 0
1 295 -282 0
1 303 -184 0
1 303 190 0
1 -294 184 0
1 -294 191 0
1 -294 -292 0
1 294 190 0
1 296 -184 0
1 296 -301 0
1 -190 304 0
1 -190 -305 0
1 -190 -296 0
1 -191 304 0
1 191 306 0
1 191 286 0
1 -191 296 0
1 -292 -304 0
1 292 302 0
1 292 293 0
1 -292 295 0
1 292 -286 0
1 292 -298 0
1 -302 284 0
1 -302 104 0
1 -302 -304 0
1 -302 293 0
1 302 -286 0
1 302 305 0
1 302 -292 0
1 302 296 0
1 302 -303 0
1 193 307 0
1 -193 -308 0
1 -193 -309 0
1 -193 108 0
1 309 -307 0
1 -309 196 0
1 -309 310 0
1 200 -311 0
1 200 312 0
1 -200 197 0
1 -203 307 0
1 -203 -310 0
1 203 -313 0
1 -307 212 0
1 307 -309 0
1 -307 -200 0
1 -312 210 0
1 312 309 0
1 312 -314 0
1 -312 213 0
1 312 211 0
1 310 -203 0
1 -310 308 0
1 310 200 0
1 -308 -309 0
1 -308 200 0
1 -211 -307 0
1 211 -315 0
1 -211 -210 0
1 -211 -312 0
1 211 313 0
1 -211 -316 0
1 -211 -122 0
1 -210 -307 0
1 -210 315 0
1 -210 -121 0
1 210 316 0
1 210 -211 0
1 -213 -194 0
1 -213 316 0
1 -213 317 0
1 213 119 0
1 212 -311 0
1 212 -315 0
1 -212 -318 0
1 -212 -194 0
1 212 312 0
1 212 -313 0
1 212 -316 0
1 212 -198 0
1 -315 319 0
1 315 206 0
1 -315 210 0
1 -315 320 0
1 -315 218 0
1 315 -200 0
1 -316 315 0
1 316 -321 0
1 -316 -212 0
1 316 -203 0
1 316 320 0
1 316 -322 0
1 316 -219 0
1 311 212 0
1 -311 -203 0
1 311 211 0
1 313 311 0
1 -313 323 0
1 313 324 0
1 219 -325 0
1 -219 -198 0
1 219 -199 0
1 -206 115 0
1 -206 -326 0
1 -206 -318 0
1 206 214 0
1 -206 -202 0
1 -218 327 0
1 218 214 0
1 321 318 0
1 -321 -327 0
1 -321 -214 0
1 321 317 0
1 -321 218 0
1 321 -325 0
1 -321 -202 0
1 -318 -328 0
1 318 -217 0
1 318 -321 0
1 -318 -206 0
1 -318 -212 0
1 318 216 0
1 318 -219 0
1 -318 329 0
1 -325 -321 0
1 -325 -206 0
1 325 212 0
1 325 -330 0
1 -325 213 0
1 -326 -331 0
1 326 -323 0
1 -326 -321 0
1 326 -332 0
1 -326 333 0
1 326 -320 0
1 326 -317 0
1 -326 218 0
1 -317 326 0
1 317 219 0
1 317 213 0
1 216 -217 0
1 216 -318 0
1 216 -208 0
1 -216 -130 0
1 216 215 0
1 216 325 0
1 -216 334 0
1 -216 205 0
1 -217 -137 0
1 -217 323 0
1 -217 -327 0
1 -217 -208 0
1 217 -216 0
1 -217 -205 0
1 228 -328 0
1 228 -222 0
1 -228 -335 0
1 228 327 0
1 228 -215 0
1 -228 -334 0
1 -228 -209 0
1 -328 -335 0
1 328 -318 0
1 328 -208 0
1 328 228 0
1 -328 -334 0
1 -208 321 0
1 208 336 0
1 208 239 0
1 208 -337 0
1 208 227 0
1 209 321 0
1 209 -336 0
1 209 -239 0
1 209 -208 0
1 209 224 0
1 -209 -228 0
1 209 -216 0
1 -209 338 0
1 -327 328 0
1 -327 228 0
1 334 -328 0
1 334 -321 0
1 -334 -336 0
1 334 228 0
1 334 218 0
1 -334 -329 0
1 224 335 0
1 224 220 0
1 -224 -208 0
1 224 -139 0
1 -224 215 0
1 -227 208 0
1 227 339 0
1 227 -221 0
1 227 136 0
1 239 -120 0
1 239 -340 0
1 239 341 0
1 239 -342 0
1 -236 -226 0
1 236 -120 0
1 236 341 0
1 236 -209 0
1 236 -343 0
1 340 335 0
1 -340 246 0
1 340 -239 0
1 -340 -224 0
1 340 204 0
1 -340 344 0
1 -340 -227 0
1 -335 328 0
1 -335 345 0
1 -335 -340 0
1 -335 344 0
1 335 236 0
1 -335 -227 0
1 -339 214 0
1 -339 228 0
1 -339 -236 0
1 -346 328 0
1 -346 336 0
1 -346 -224 0
1 346 -339 0
1 346 228 0
1 346 -236 0
1 234 -335 0
1 -234 147 0
1 234 -341 0
1 234 229 0
1 -234 -232 0
1 -232 -335 0
1 232 -347 0
1 -232 223 0
1 -232 229 0
1 -232 230 0
1 -232 -235 0
1 232 -337 0
1 246 335 0
1 246 226 0
1 246 231 0
1 244 335 0
1 -244 -348 0
1 244 -237 0
1 -342 -254 0
1 342 -226 0
1 -342 -234 0
1 -342 -349 0
1 -342 -244 0
1 342 236 0
1 226 -350 0
1 -226 220 0
1 226 243 0
1 226 -244 0
1 226 236 0
1 341 347 0
1 -341 350 0
1 341 351 0
1 -341 239 0
1 341 352 0
1 341 215 0
1 341 -353 0
1 -341 -354 0
1 341 344 0
1 347 -350 0
1 347 351 0
1 347 234 0
1 -347 239 0
1 -347 -236 0
1 -243 348 0
1 -243 -237 0
1 243 -240 0
1 -243 342 0
1 -243 -355 0
1 -243 238 0
1 -241 -348 0
1 -241 -129 0
1 241 -240 0
1 -241 230 0
1 241 238 0
1 -241 -138 0
1 254 -355 0
1 254 245 0
1 -254 -242 0
1 -255 -226 0
1 -255 -342 0
1 -255 245 0
1 -255 -138 0
1 231 -264 0
1 231 254 0
1 -231 -243 0
1 231 -233 0
1 -231 255 0
1 -231 229 0
1 231 356 0
1 -233 -254 0
1 233 223 0
1 -233 246 0
1 -233 -357 0
1 -233 -255 0
1 -233 356 0
1 -355 254 0
1 355 -358 0
1 355 235 0
1 -355 244 0
1 -355 356 0
1 348 -359 0
1 -348 -350 0
1 -348 -357 0
1 348 -358 0
1 -348 -255 0
1 348 241 0
1 348 -244 0
1 -253 -174 0
1 -253 350 0
1 253 -233 0
1 253 -248 0
1 253 245 0
1 250 149 0
1 250 -233 0
1 -250 -360 0
1 250 161 0
1 -250 248 0
1 -250 352 0
1 -250 -231 0
1 -250 -242 0
1 264 262 0
1 264 231 0
1 262 -264 0
1 -262 252 0
1 -262 361 0
1 -262 -233 0
1 262 362 0
1 -262 -175 0
1 -262 363 0
1 242 -264 0
1 -242 253 0
1 -242 364 0
1 242 271 0
1 -242 362 0
1 -242 272 0
1 -362 -264 0
1 -362 271 0
1 362 255 0
1 245 264 0
1 245 -254 0
1 245 -364 0
1 245 250 0
1 -245 230 0
1 360 253 0
1 -360 364 0
1 360 -237 0
1 360 -255 0
1 261 169 0
1 261 -362 0
1 -261 -363 0
1 261 251 0
1 261 148 0
1 -272 251 0
1 272 263 0
1 272 -259 0
1 -272 -158 0
1 -272 -269 0
1 -272 365 0
1 272 -242 0
1 -271 -260 0
1 271 -251 0
1 271 -158 0
1 361 366 0
1 361 367 0
1 -361 278 0
1 -361 268 0
1 -251 -276 0
1 251 271 0
1 251 -262 0
1 251 248 0
1 -251 278 0
1 251 268 0
1 -251 -272 0
1 252 -264 0
1 -252 -368 0
1 252 369 0
1 252 -370 0
1 -252 -261 0
1 -252 363 0
1 252 367 0
1 -252 371 0
1 252 -272 0
1 -252 -138 0
1 363 264 0
1 -363 -252 0
1 -363 -369 0
1 363 -370 0
1 363 -364 0
1 -363 -262 0
1 -363 -372 0
1 -363 -373 0
1 -268 -361 0
1 -268 -267 0
1 -268 251 0
1 -268 158 0
1 267 -361 0
1 -267 -256 0
1 267 -154 0
1 -267 -258 0
1 267 265 0
1 267 -263 0
1 -278 -361 0
1 -278 -260 0
1 278 258 0
1 278 -263 0
1 278 259 0
1 276 260 0
1 276 270 0
1 276 259 0
1 -276 -278 0
1 -276 -374 0
1 -276 266 0
1 258 375 0
1 258 -275 0
1 258 376 0
1 -258 -277 0
1 -258 278 0
1 -259 -258 0
1 -259 267 0
1 -259 278 0
1 -259 377 0
1 -259 -272 0
1 -260 -375 0
1 260 149 0
1 260 369 0
1 260 267 0
1 260 -271 0
1 260 -378 0
1 -260 -263 0
1 260 367 0
1 -260 -278 0
1 -260 272 0
1 -263 271 0
1 -263 378 0
1 -263 367 0
1 -277 -178 0
1 -277 258 0
1 -277 -176 0
1 277 259 0
1 277 -374 0
1 277 -379 0
1 -275 178 0
1 -275 189 0
1 275 270 0
1 275 -380 0
1 -275 265 0
1 -275 -273 0
1 275 -176 0
1 -275 277 0
1 275 259 0
1 291 258 0
1 -291 380 0
1 291 -381 0
1 -291 176 0
1 -291 382 0
1 -291 383 0
1 -288 284 0
1 -288 384 0
1 -288 -381 0
1 288 176 0
1 288 -291 0
1 -288 379 0
1 -288 -383 0
1 288 385 0
1 380 283 0
1 380 154 0
1 -380 386 0
1 380 -387 0
1 -380 299 0
1 380 -285 0
1 -380 291 0
1 380 -278 0
1 380 -379 0
1 -380 388 0
1 -379 288 0
1 379 -380 0
1 -379 285 0
1 379 291 0
1 379 -388 0
1 -270 375 0
1 -270 276 0
1 270 -256 0
1 -270 389 0
1 -270 -390 0
1 270 -277 0
1 270 374 0
1 270 -388 0
1 -374 -375 0
1 374 276 0
1 374 270 0
1 -374 390 0
1 374 -291 0
1 -374 -278 0
1 285 -391 0
1 -285 176 0
1 -283 -178 0
1 283 381 0
1 283 -391 0
1 283 -285 0
1 283 -176 0
1 -283 -383 0
1 283 303 0
1 -299 287 0
1 -299 380 0
1 299 391 0
1 299 390 0
1 -299 392 0
1 -299 -393 0
1 299 383 0
1 299 -301 0
1 301 -287 0
1 301 281 0
1 301 299 0
1 -301 379 0
1 -301 -385 0
1 -391 394 0
1 -391 -293 0
1 391 -395 0
1 391 -291 0
1 -391 -396 0
1 391 -298 0
1 -385 288 0
1 385 394 0
1 -385 397 0
1 385 299 0
1 -385 391 0
1 385 -291 0
1 385 -396 0
1 385 298 0
1 385 162 0
1 385 301 0
1 -381 -288 0
1 -381 398 0
1 -381 -265 0
1 381 387 0
1 -381 -383 0
1 -381 -291 0
1 -381 396 0
1 -381 399 0
1 -381 388 0
1 383 283 0
1 -383 288 0
1 383 -394 0
1 -383 -398 0
1 383 -399 0
1 383 388 0
1 383 400 0
1 -293 -287 0
1 -293 -392 0
1 -293 298 0
1 -298 302 0
1 298 -391 0
1 -298 -292 0
1 397 -287 0
1 -397 401 0
1 397 -297 0
1 397 -302 0
1 -397 -392 0
1 397 -393 0
1 397 385 0
1 -402 -401 0
1 402 -403 0
1 402 302 0
1 402 397 0
1 402 392 0
1 -402 -300 0
1 402 -292 0
1 -402 385 0
1 -393 -401 0
1 393 397 0
1 393 -299 0
1 -393 404 0
1 -393 305 0
1 -393 402 0
1 -393 298 0
1 -401 279 0
1 401 -405 0
1 401 -406 0
1 401 -397 0
1 401 -402 0
1 -401 -298 0
1 -401 301 0
1 392 -394 0
1 392 397 0
1 -392 -299 0
1 -392 -404 0
1 392 407 0
1 -392 402 0
1 -392 -298 0
1 -287 405 0
1 -287 392 0
1 -287 -396 0
1 304 302 0
1 304 -191 0
1 -304 -393 0
1 304 292 0
1 -305 403 0
1 -305 -393 0
1 305 -292 0
1 305 -190 0
1 406 -401 0
1 -406 408 0
1 -406 -409 0
1 -410 406 0
1 -410 -297 0
1 -410 306 0
1 410 393 0
1 -410 -407 0
1 -410 -408 0
1 410 409 0
1 297 -411 0
1 297 -184 0
1 297 397 0
1 297 -412 0
1 -297 -402 0
1 300 304 0
1 300 397 0
1 -300 -413 0
1 300 402 0
1 -403 405 0
1 403 304 0
1 -411 -414 0
1 411 306 0
1 -411 409 0
1 -412 297 0
1 -412 414 0
1 -415 -297 0
1 415 -414 0
1 -416 306 0
1 -416 413 0
1 -409 416 0
1 -409 -410 0
1 -306 410 0
1 -414 411 0
1 -414 408 0
1 320 417 0
1 320 -323 0
1 -320 326 0
1 320 -418 0
1 -320 -317 0
1 -323 417 0
1 -323 -217 0
1 323 311 0
1 -323 326 0
1 -323 -418 0
1 -323 -313 0
1 323 -419 0
1 -333 418 0
1 -333 322 0
1 333 -419 0
1 331 -328 0
1 331 418 0
1 331 314 0
1 -331 -333 0
1 331 -317 0
1 417 307 0
1 417 331 0
1 417 420 0
1 -417 -323 0
1 -417 -421 0
1 417 314 0
1 417 333 0
1 314 -331 0
1 314 422 0
1 -314 343 0
1 314 329 0
1 -419 -331 0
1 -419 -323 0
1 -419 -310 0
1 419 -333 0
1 -418 -308 0
1 -418 -423 0
1 418 333 0
1 421 -424 0
1 421 326 0
1 -421 -318 0
1 421 327 0
1 421 -324 0
1 421 -325 0
1 -329 -417 0
1 -329 -424 0
1 -329 326 0
1 -329 314 0
1 329 -324 0
1 -329 325 0
1 329 334 0
1 425 327 0
1 425 -314 0
1 425 -322 0
1 -425 -330 0
1 343 -417 0
1 -343 -424 0
1 -343 426 0
1 -343 -327 0
1 -343 -322 0
1 343 -236 0
1 319 -331 0
1 -319 -315 0
1 319 427 0
1 -319 -428 0
1 319 336 0
1 -319 -425 0
1 319 333 0
1 -319 -429 0
1 319 -337 0
1 -322 331 0
1 -322 319 0
1 322 425 0
1 322 333 0
1 -424 311 0
1 -424 -333 0
1 -424 329 0
1 324 -331 0
1 -324 424 0
1 -324 427 0
1 324 425 0
1 324 343 0
1 336 234 0
1 336 327 0
1 336 -208 0
1 336 330 0
1 336 209 0
1 -337 319 0
1 -337 -332 0
1 337 426 0
1 -337 -208 0
1 337 339 0
1 337 -232 0
1 -337 -209 0
1 428 332 0
1 -428 -246 0
1 -428 -426 0
1 428 430 0
1 428 431 0
1 -428 -432 0
1 -428 -330 0
1 428 433 0
1 -428 346 0
1 429 -430 0
1 429 322 0
1 -426 -434 0
1 -426 428 0
1 426 -435 0
1 426 -436 0
1 426 344 0
1 -426 330 0
1 330 351 0
1 330 -325 0
1 330 343 0
1 -332 -437 0
1 -332 427 0
1 332 438 0
1 -332 336 0
1 -332 -432 0
1 332 337 0
1 432 332 0
1 432 439 0
1 432 336 0
1 -432 -425 0
1 432 -436 0
1 432 -440 0
1 -432 317 0
1 -432 429 0
1 -432 337 0
1 434 335 0
1 -434 243 0
1 434 431 0
1 -434 -339 0
1 434 341 0
1 434 -338 0
1 434 -346 0
1 -344 347 0
1 344 -431 0
1 344 -339 0
1 344 -341 0
1 -344 -433 0
1 -351 -347 0
1 351 -254 0
1 -351 437 0
1 -351 426 0
1 -351 -430 0
1 -351 -341 0
1 351 353 0
1 351 330 0
1 -351 433 0
1 -351 338 0
1 -351 -441 0
1 -353 347 0
1 -353 -351 0
1 353 255 0
1 -353 -330 0
1 431 359 0
1 431 -428 0
1 -431 -442 0
1 338 -359 0
1 -338 -351 0
1 338 428 0
1 -338 352 0
1 338 344 0
1 -338 209 0
1 338 -443 0
1 430 444 0
1 -430 428 0
1 -430 445 0
1 -430 442 0
1 430 436 0
1 430 -344 0
1 430 433 0
1 -433 444 0
1 433 442 0
1 -433 436 0
1 433 -429 0
1 -350 446 0
1 -350 352 0
1 -350 -341 0
1 -350 355 0
1 350 441 0
1 -352 347 0
1 -352 -348 0
1 352 -431 0
1 352 -446 0
1 352 436 0
1 -352 342 0
1 -352 441 0
1 -359 -431 0
1 -359 -446 0
1 -359 447 0
1 359 -354 0
1 358 -345 0
1 358 -448 0
1 -358 449 0
1 -358 -348 0
1 -358 -431 0
1 358 446 0
1 -358 -447 0
1 358 -349 0
1 -358 -338 0
1 -358 -441 0
1 447 -345 0
1 -447 351 0
1 -447 -358 0
1 -447 -450 0
1 447 353 0
1 -447 -451 0
1 -345 359 0
1 345 -452 0
1 -345 -453 0
1 345 454 0
1 345 358 0
1 345 451 0
1 345 -365 0
1 -446 -444 0
1 446 -359 0
1 446 351 0
1 446 -442 0
1 -446 -353 0
1 -446 451 0
1 446 -455 0
1 441 444 0
1 -441 -359 0
1 441 -456 0
1 -441 453 0
1 441 352 0
1 356 345 0
1 -356 348 0
1 356 355 0
1 -356 231 0
1 -356 245 0
1 357 -442 0
1 -357 245 0
1 -357 -356 0
1 365 -455 0
1 365 457 0
1 -365 -447 0
1 365 349 0
1 -365 458 0
1 -454 345 0
1 -454 447 0
1 -454 354 0
1 -454 349 0
1 -454 458 0
1 349 359 0
1 -349 -449 0
1 -349 454 0
1 449 -370 0
1 449 -459 0
1 449 -357 0
1 449 -460 0
1 449 373 0
1 -449 371 0
1 449 -365 0
1 -449 356 0
1 -354 -359 0
1 -354 -448 0
1 -354 461 0
1 354 453 0
1 354 358 0
1 -354 -460 0
1 354 365 0
1 448 -359 0
1 448 347 0
1 448 462 0
1 -448 463 0
1 -448 454 0
1 448 -460 0
1 -448 -451 0
1 448 365 0
1 448 -356 0
1 -371 364 0
1 371 360 0
1 -371 -362 0
1 -371 451 0
1 371 245 0
1 -371 -242 0
1 -364 -252 0
1 364 449 0
1 -364 267 0
1 364 -453 0
1 -364 363 0
1 -364 -349 0
1 364 -371 0
1 -364 245 0
1 -373 -464 0
1 -373 465 0
1 -373 363 0
1 373 466 0
1 -373 467 0
1 370 -463 0
1 370 458 0
1 -370 -467 0
1 -370 -468 0
1 -467 384 0
1 -467 469 0
1 -467 -382 0
1 457 -384 0
1 -457 -369 0
1 457 -364 0
1 -457 -365 0
1 -458 -470 0
1 458 -471 0
1 -458 -370 0
1 -458 -454 0
1 -458 469 0
1 -458 365 0
1 464 -470 0
1 464 370 0
1 -464 469 0
1 -464 -371 0
1 -367 -369 0
1 -367 457 0
1 367 465 0
1 367 -251 0
1 -367 -263 0
1 -367 472 0
1 369 -361 0
1 -369 461 0
1 -369 363 0
1 369 251 0
1 -369 -467 0
1 369 -472 0
1 -369 -468 0
1 382 -366 0
1 -382 473 0
1 384 -368 0
1 -384 465 0
1 384 -372 0
1 -384 -474 0
1 384 382 0
1 -384 -472 0
1 468 475 0
1 -468 -375 0
1 468 -384 0
1 468 -473 0
1 468 -378 0
1 -468 -367 0
1 468 373 0
1 -468 242 0
1 473 -375 0
1 -473 -369 0
1 473 378 0
1 -473 -367 0
1 472 476 0
1 472 -382 0
1 472 367 0
1 -472 -245 0
1 465 -477 0
1 465 -384 0
1 -465 369 0
1 465 -360 0
1 465 -478 0
1 -465 -382 0
1 -378 -366 0
1 -378 260 0
1 378 -270 0
1 -378 473 0
1 378 -474 0
1 -378 -259 0
1 -378 -468 0
1 -375 270 0
1 -375 -473 0
1 -375 -474 0
1 375 -263 0
1 -375 -468 0
1 390 366 0
1 390 -479 0
1 -390 -473 0
1 -390 476 0
1 -390 -474 0
1 -390 377 0
1 480 -479 0
1 -480 473 0
1 480 481 0
1 480 301 0
1 366 375 0
1 366 -384 0
1 366 482 0
1 -366 -390 0
1 366 -474 0
1 366 -399 0
1 366 480 0
1 -474 -384 0
1 474 -483 0
1 474 382 0
1 474 -484 0
1 -474 -399 0
1 -474 -388 0
1 474 -480 0
1 368 -483 0
1 368 -382 0
1 -368 485 0
1 372 -375 0
1 -372 384 0
1 372 -382 0
1 372 484 0
1 387 -366 0
1 -387 -270 0
1 -387 380 0
1 -387 381 0
1 387 474 0
1 387 481 0
1 387 379 0
1 -387 383 0
1 388 270 0
1 -388 387 0
1 -388 474 0
1 -388 377 0
1 -388 -379 0
1 398 366 0
1 398 376 0
1 -398 -397 0
1 -398 389 0
1 398 486 0
1 398 381 0
1 398 -481 0
1 398 -487 0
1 -399 366 0
1 399 389 0
1 -399 -381 0
1 399 -474 0
1 399 -402 0
1 -399 -488 0
1 -399 -383 0
1 376 -489 0
1 376 -387 0
1 376 -407 0
1 376 377 0
1 376 396 0
1 376 388 0
1 377 -490 0
1 377 -489 0
1 377 -387 0
1 -377 407 0
1 -377 396 0
1 377 399 0
1 -479 260 0
1 479 -490 0
1 479 491 0
1 479 -398 0
1 -479 -390 0
1 479 -492 0
1 479 -484 0
1 481 -479 0
1 -481 398 0
1 481 387 0
1 -481 -390 0
1 -481 484 0
1 -481 399 0
1 -481 -480 0
1 -394 -381 0
1 396 -394 0
1 396 377 0
1 -396 -386 0
1 -396 383 0
1 -489 -395 0
1 489 -392 0
1 489 407 0
1 -489 -487 0
1 -407 -287 0
1 -407 489 0
1 -407 -376 0
1 407 -395 0
1 -407 410 0
1 -386 -493 0
1 -386 -405 0
1 -386 380 0
1 -386 -413 0
1 386 -487 0
1 487 -493 0
1 -487 -405 0
1 -487 489 0
1 -487 394 0
1 487 413 0
1 -487 404 0
1 -487 396 0
1 389 -494 0
1 389 -490 0
1 389 -489 0
1 389 495 0
1 495 494 0
1 495 -496 0
1 495 -497 0
1 -495 407 0
1 495 -396 0
1 -495 -399 0
1 -495 374 0
1 405 -401 0
1 405 411 0
1 -405 -403 0
1 405 490 0
1 405 -386 0
1 405 -498 0
1 405 -395 0
1 405 393 0
1 -405 487 0
1 -404 -401 0
1 -404 -403 0
1 404 405 0
1 404 386 0
1 -404 395 0
1 -404 -392 0
1 404 -499 0
1 -493 494 0
1 -493 403 0
1 -493 -386 0
1 493 498 0
1 493 -400 0
1 -493 -499 0
1 413 -403 0
1 -413 -498 0
1 413 395 0
1 413 416 0
1 -413 487 0
1 395 405 0
1 395 489 0
1 -395 -413 0
1 395 -407 0
1 499 -489 0
1 499 395 0
1 -499 -413 0
1 -498 489 0
1 -498 413 0
1 -498 407 0
1 -498 -400 0
1 400 -493 0
1 400 413 0
1 -400 -407 0
1 -400 -383 0
1 427 -420 0
1 -427 -319 0
1 427 -332 0
1 -427 -422 0
1 427 500 0
1 -500 420 0
1 500 -324 0
1 500 432 0
1 437 -501 0
1 437 420 0
1 437 -502 0
1 437 332 0
1 -437 423 0
1 437 -440 0
1 -440 -420 0
1 440 -503 0
1 -420 504 0
1 -420 417 0
1 -420 -437 0
1 -420 505 0
1 -420 -440 0
1 -420 -500 0
1 -422 504 0
1 422 -420 0
1 -422 506 0
1 422 -437 0
1 -422 505 0
1 422 -314 0
1 422 440 0
1 501 -427 0
1 501 -423 0
1 501 500 0
1 -501 419 0
1 423 437 0
1 -423 440 0
1 -423 500 0
1 -506 -420 0
1 -506 350 0
1 -506 -507 0
1 506 -502 0
1 -506 -422 0
1 506 -436 0
1 506 503 0
1 -506 330 0
1 -436 -420 0
1 436 -507 0
1 436 -502 0
1 -436 -332 0
1 436 -503 0
1 -436 -330 0
1 436 -433 0
1 504 359 0
1 -504 502 0
1 504 -438 0
1 504 -430 0
1 504 -422 0
1 -504 -503 0
1 -504 -439 0
1 505 420 0
1 505 -435 0
1 -505 430 0
1 505 422 0
1 505 503 0
1 -505 -508 0
1 -502 444 0
1 -502 -506 0
1 502 -442 0
1 502 505 0
1 502 440 0
1 -502 -503 0
1 -502 -455 0
1 -503 509 0
1 -503 436 0
1 -503 455 0
1 -507 504 0
1 -507 -510 0
1 507 -436 0
1 507 440 0
1 -511 -504 0
1 -511 506 0
1 511 -507 0
1 511 440 0
1 -444 -435 0
1 444 -356 0
1 444 -431 0
1 444 442 0
1 444 503 0
1 444 -508 0
1 -444 433 0
1 444 -441 0
1 442 -444 0
1 -442 502 0
1 442 -435 0
1 442 503 0
1 -455 -502 0
1 -455 -438 0
1 -455 509 0
1 455 -446 0
1 -455 -512 0
1 -455 -365 0
1 -455 -443 0
1 -509 -438 0
1 509 -443 0
1 509 445 0
1 -509 513 0
1 -509 -508 0
1 -435 -504 0
1 -435 -463 0
1 435 -442 0
1 435 -508 0
1 508 -463 0
1 508 435 0
1 -508 505 0
1 508 -514 0
1 508 466 0
1 508 515 0
1 508 451 0
1 -438 516 0
1 -438 517 0
1 438 518 0
1 438 509 0
1 438 505 0
1 -438 439 0
1 -438 514 0
1 -438 -519 0
1 438 455 0
1 439 -444 0
1 439 -516 0
1 -439 520 0
1 -439 -521 0
1 439 -522 0
1 451 512 0
1 451 -345 0
1 451 354 0
1 -451 -441 0
1 -453 448 0
1 -453 -435 0
1 453 -508 0
1 -453 -443 0
1 -453 441 0
1 -466 -456 0
1 466 435 0
1 -466 513 0
1 -466 -354 0
1 -466 373 0
1 -466 512 0
1 463 -456 0
1 463 448 0
1 463 -370 0
1 -463 354 0
1 513 471 0
1 -513 -463 0
1 513 -431 0
1 -513 523 0
1 513 -524 0
1 513 -525 0
1 -513 451 0
1 443 460 0
1 -445 -463 0
1 445 453 0
1 445 -430 0
1 -445 524 0
1 445 -451 0
1 -445 -512 0
1 445 455 0
1 512 -526 0
1 -512 516 0
1 -512 453 0
1 512 509 0
1 -512 -445 0
1 512 527 0
1 -512 455 0
1 460 -456 0
1 -460 452 0
1 460 -464 0
1 460 513 0
1 -460 -450 0
1 460 354 0
1 -461 464 0
1 -525 459 0
1 -525 -513 0
1 -525 382 0
1 -525 528 0
1 -525 -443 0
1 -471 -456 0
1 -471 384 0
1 -471 450 0
1 471 443 0
1 450 452 0
1 450 471 0
1 -450 463 0
1 -450 447 0
1 450 -529 0
1 -452 463 0
1 -452 476 0
1 452 -469 0
1 452 460 0
1 452 529 0
1 -530 -531 0
1 530 -532 0
1 -530 461 0
1 530 -446 0
1 -530 -533 0
1 530 534 0
1 530 524 0
1 -530 460 0
1 456 531 0
1 -456 535 0
1 456 -471 0
1 456 463 0
1 456 536 0
1 456 -533 0
1 -456 -460 0
1 456 -466 0
1 456 -441 0
1 -469 470 0
1 469 464 0
1 -469 -458 0
1 470 462 0
1 -470 -459 0
1 -470 -465 0
1 -470 -469 0
1 470 472 0
1 -476 459 0
1 476 -533 0
1 -476 -450 0
1 476 537 0
1 476 472 0
1 -477 -452 0
1 477 -462 0
1 477 459 0
1 477 465 0
1 -477 -476 0
1 -477 -450 0
1 477 -538 0
1 477 539 0
1 -477 -472 0
1 477 -480 0
1 538 477 0
1 538 -471 0
1 538 -459 0
1 -538 486 0
1 538 478 0
1 -538 -349 0
1 538 540 0
1 -538 485 0
1 -459 477 0
1 -459 449 0
1 -459 -478 0
1 -459 -525 0
1 -459 -488 0
1 -541 -470 0
1 541 471 0
1 541 -542 0
1 -541 543 0
1 541 536 0
1 541 -476 0
1 -541 -525 0
1 -541 544 0
1 462 -470 0
1 462 -448 0
1 -462 -471 0
1 462 -476 0
1 462 469 0
1 462 545 0
1 -462 -546 0
1 462 -529 0
1 -478 547 0
1 478 387 0
1 478 473 0
1 478 536 0
1 -478 472 0
1 -478 537 0
1 485 -368 0
1 485 -548 0
1 485 -465 0
1 -485 -372 0
1 485 -539 0
1 485 388 0
1 485 -529 0
1 -486 368 0
1 486 -398 0
1 -486 549 0
1 486 -550 0
1 -488 -459 0
1 -488 551 0
1 -488 399 0
1 -488 550 0
1 -537 552 0
1 -537 -491 0
1 537 -548 0
1 -537 -467 0
1 -537 -488 0
1 537 485 0
1 -548 -552 0
1 -548 486 0
1 548 478 0
1 -548 484 0
1 -539 -477 0
1 -539 -553 0
1 -539 -542 0
1 539 476 0
1 539 554 0
1 -539 -555 0
1 -539 545 0
1 -539 488 0
1 539 -485 0
1 547 -477 0
1 547 -542 0
1 -547 486 0
1 547 539 0
1 -547 -554 0
1 -547 545 0
1 -547 -485 0
1 483 -475 0
1 -483 537 0
1 483 -550 0
1 484 475 0
1 484 551 0
1 -484 -372 0
1 491 -479 0
1 -491 489 0
1 -491 -553 0
1 -491 -549 0
1 -491 -550 0
1 -492 -556 0
1 -492 -551 0
1 492 -549 0
1 492 557 0
1 492 407 0
1 -492 550 0
1 -475 494 0
1 -475 -490 0
1 475 -549 0
1 475 468 0
1 549 475 0
1 -549 -483 0
1 549 -496 0
1 -549 -492 0
1 -549 -488 0
1 -550 -483 0
1 -550 -486 0
1 -550 -554 0
1 -550 -472 0
1 -551 558 0
1 -551 -491 0
1 -551 484 0
1 -551 -550 0
1 -490 556 0
1 -490 -482 0
1 -490 -405 0
1 490 481 0
1 -490 -377 0
1 -497 490 0
1 497 -479 0
1 497 -559 0
1 497 -481 0
1 497 -554 0
1 497 -377 0
1 494 -482 0
1 494 -559 0
1 494 -557 0
1 496 475 0
1 496 494 0
1 -496 -482 0
1 -496 -389 0
1 496 549 0
1 496 557 0
1 482 494 0
1 482 -490 0
1 -482 557 0
1 -482 497 0
1 482 492 0
1 557 -494 0
1 556 -491 0
1 556 497 0
1 559 556 0
1 -559 -496 0
1 559 -497 0
1 559 -492 0
1 522 438 0
1 -522 -511 0
1 -522 439 0
1 520 560 0
1 -520 502 0
1 520 -438 0
1 519 560 0
1 519 -561 0
1 -519 562 0
1 517 560 0
1 -517 -563 0
1 -517 564 0
1 -517 -439 0
1 517 -519 0
1 -563 526 0
1 -563 -565 0
1 -563 -519 0
1 566 -528 0
1 -566 -514 0
1 -566 -522 0
1 -560 -520 0
1 -560 562 0
1 562 517 0
1 -562 -423 0
1 562 -567 0
1 514 -563 0
1 -514 -439 0
1 514 -561 0
1 -514 -564 0
1 514 -460 0
1 -516 564 0
1 516 -439 0
1 516 -508 0
1 -516 512 0
1 528 -526 0
1 528 561 0
1 528 -518 0
1 528 -566 0
1 -528 525 0
1 -528 512 0
1 526 -445 0
1 -526 -566 0
1 526 -521 0
1 -526 -515 0
1 561 502 0
1 561 516 0
1 -561 -568 0
1 561 -524 0
1 -561 528 0
1 561 569 0
1 564 -531 0
1 -564 -532 0
1 -564 -517 0
1 564 570 0
1 -564 -533 0
1 510 526 0
1 510 -507 0
1 510 516 0
1 510 517 0
1 510 570 0
1 510 -571 0
1 510 -519 0
1 -510 569 0
1 571 -510 0
1 571 572 0
1 571 -519 0
1 524 -561 0
1 524 -518 0
1 -524 -573 0
1 -524 -445 0
1 524 530 0
1 -524 521 0
1 -524 443 0
1 -532 470 0
1 532 518 0
1 532 445 0
1 -532 -513 0
1 532 515 0
1 533 -456 0
1 533 -531 0
1 -533 -518 0
1 533 573 0
1 -533 -476 0
1 -533 -515 0
1 -533 -574 0
1 -531 477 0
1 -531 -561 0
1 -531 -573 0
1 -531 575 0
1 531 530 0
1 531 521 0
1 573 -531 0
1 573 -435 0
1 573 576 0
1 -573 536 0
1 -573 524 0
1 573 528 0
1 -573 -577 0
1 573 546 0
1 515 -573 0
1 -515 -543 0
1 -515 536 0
1 -515 -533 0
1 515 -528 0
1 515 -577 0
1 515 -546 0
1 -518 526 0
1 -518 578 0
1 518 524 0
1 -518 -579 0
1 521 531 0
1 -521 -580 0
1 521 -579 0
1 536 -456 0
1 -536 462 0
1 -536 523 0
1 -536 -450 0
1 -536 541 0
1 536 -515 0
1 536 -529 0
1 -536 -574 0
1 529 462 0
1 -529 -573 0
1 529 523 0
1 529 450 0
1 -529 485 0
1 529 569 0
1 543 581 0
1 -543 573 0
1 -543 486 0
1 -543 -523 0
1 543 -515 0
1 546 -581 0
1 -546 -527 0
1 546 541 0
1 546 515 0
1 -546 -574 0
1 523 -543 0
1 523 533 0
1 -523 582 0
1 -523 574 0
1 574 553 0
1 574 -542 0
1 -574 -536 0
1 574 523 0
1 -574 -582 0
1 -574 555 0
1 574 545 0
1 -574 546 0
1 575 583 0
1 575 -543 0
1 575 445 0
1 575 582 0
1 -575 546 0
1 -527 -531 0
1 527 -583 0
1 -527 529 0
1 -542 581 0
1 542 -459 0
1 -542 -523 0
1 -542 584 0
1 542 539 0
1 -545 -459 0
1 -545 523 0
1 545 -584 0
1 545 538 0
1 -545 539 0
1 -553 -540 0
1 -553 583 0
1 553 585 0
1 553 -523 0
1 -553 539 0
1 -555 -535 0
1 -555 -586 0
1 555 -553 0
1 -555 523 0
1 -555 544 0
1 -555 -540 0
1 -555 -587 0
1 -584 553 0
1 584 -588 0
1 -584 -554 0
1 584 -555 0
1 -581 -552 0
1 -581 543 0
1 -581 -584 0
1 -581 -554 0
1 -581 555 0
1 -581 545 0
1 -581 -546 0
1 534 -589 0
1 -534 590 0
1 534 591 0
1 534 555 0
1 -534 546 0
1 -535 -456 0
1 -535 -589 0
1 535 553 0
1 535 543 0
1 -535 -591 0
1 535 -582 0
1 -535 -545 0
1 -535 -546 0
1 552 -490 0
1 552 585 0
1 -552 -551 0
1 552 544 0
1 552 540 0
1 552 -537 0
1 -554 581 0
1 -554 -497 0
1 554 550 0
1 558 -494 0
1 558 -586 0
1 558 -551 0
1 -558 -588 0
1 558 -540 0
1 558 550 0
1 588 -581 0
1 588 -551 0
1 -588 -496 0
1 588 544 0
1 588 -540 0
1 -588 550 0
1 540 -553 0
1 540 588 0
1 -585 -558 0
1 544 558 0
1 544 -553 0
1 -544 554 0
1 586 552 0
1 586 588 0
1 -586 554 0
1 -586 -555 0
1 -570 561 0
1 -570 564 0
1 -570 569 0
1 -569 592 0
1 -569 565 0
1 -569 -510 0
1 569 561 0
1 569 518 0
1 569 -567 0
1 593 594 0
1 593 572 0
1 579 592 0
1 -579 568 0
1 579 -518 0
1 579 594 0
1 579 -572 0
1 579 595 0
1 579 546 0
1 565 -583 0
1 -565 576 0
1 565 569 0
1 594 -576 0
1 594 593 0
1 594 -570 0
1 -594 -566 0
1 594 587 0
1 594 -577 0
1 -594 579 0
1 592 593 0
1 -592 -579 0
1 567 -593 0
1 567 570 0
1 567 569 0
1 -576 568 0
1 576 542 0
1 -576 573 0
1 -576 594 0
1 576 -515 0
1 -576 -577 0
1 577 596 0
1 -577 -576 0
1 -577 -594 0
1 -577 572 0
1 577 -545 0
1 583 -565 0
1 583 -553 0
1 -583 -597 0
1 -583 -575 0
1 -583 594 0
1 -583 587 0
1 583 598 0
1 587 568 0
1 -587 -597 0
1 -568 -589 0
1 568 -590 0
1 -568 583 0
1 -568 -595 0
1 568 -576 0
1 568 593 0
1 568 591 0
1 -568 -587 0
1 -568 -579 0
1 -595 583 0
1 595 576 0
1 595 -593 0
1 -595 579 0
1 596 -583 0
1 596 576 0
1 596 593 0
1 -596 -587 0
1 -572 596 0
1 572 -583 0
1 572 576 0
1 572 -593 0
1 572 571 0
1 572 -577 0
1 572 -579 0
1 590 -535 0
1 590 -568 0
1 590 578 0
1 590 -597 0
1 -590 -582 0
1 590 -527 0
1 590 574 0
1 -582 578 0
1 582 597 0
1 582 534 0
1 -582 580 0
1 582 -598 0
1 589 578 0
1 589 -534 0
1 589 -591 0
1 -589 -598 0
1 591 589 0
1 591 568 0
1 591 -578 0
1 -591 -597 0
1 -591 -534 0
1 597 -573 0
1 -597 582 0
1 -598 -589 0
1 598 -583 0
1 598 -597 0
1 -578 -589 0
1 578 -590 0
1 -578 518 0
1 -578 580 0
1 578 -587 0
1 580 578 0
1 580 -591 0
1 -580 521 0
1 -580 587 0
